
Gurobi 11.0.1 (win64) logging started Mon May 13 15:45:59 2024

Set parameter LogFile to value "output/solver_log42.txt"
Gurobi Optimizer version 11.0.1 build v11.0.1rc0 (win64 - Windows 11.0 (22631.2))

CPU model: 11th Gen Intel(R) Core(TM) i7-1165G7 @ 2.80GHz, instruction set [SSE2|AVX|AVX2|AVX512]
Thread count: 4 physical cores, 8 logical processors, using up to 8 threads

Optimize a model with 2806 rows, 717 columns and 52183 nonzeros
Model fingerprint: 0x6336d6c1
Variable types: 248 continuous, 469 integer (469 binary)
Coefficient statistics:
  Matrix range     [4e-01, 1e+05]
  Objective range  [1e+00, 1e+02]
  Bounds range     [1e+00, 1e+00]
  RHS range        [1e-02, 1e+05]

User MIP start produced solution with objective 78115.8 (0.01s)
User MIP start produced solution with objective 78115.8 (0.01s)
Loaded user MIP start with objective 78115.8

Presolve removed 289 rows and 242 columns
Presolve time: 0.05s
Presolved: 2517 rows, 475 columns, 49045 nonzeros
Variable types: 234 continuous, 241 integer (237 binary)

Root relaxation: objective 7.851103e+04, 644 iterations, 0.04 seconds (0.08 work units)

    Nodes    |    Current Node    |     Objective Bounds      |     Work
 Expl Unexpl |  Obj  Depth IntInf | Incumbent    BestBd   Gap | It/Node Time

     0     0 78511.0291    0   14 78115.7529 78511.0291  0.51%     -    0s
     0     0 78486.2034    0   24 78115.7529 78486.2034  0.47%     -    0s
     0     0 78486.1910    0   12 78115.7529 78486.1910  0.47%     -    0s
     0     0 78200.0241    0   12 78115.7529 78200.0241  0.11%     -    0s
     0     0 78200.0241    0    9 78115.7529 78200.0241  0.11%     -    0s
     0     0 78200.0241    0    9 78115.7529 78200.0241  0.11%     -    0s
     0     2 78200.0241    0    9 78115.7529 78200.0241  0.11%     -    0s

Explored 22 nodes (3202 simplex iterations) in 0.92 seconds (1.36 work units)
Thread count was 8 (of 8 available processors)

Solution count 2: 78115.8 78115.8 

Optimal solution found (tolerance 1.00e-04)
Best objective 7.811575294194e+04, best bound 7.811575294194e+04, gap 0.0000%
